100 61019

 266 338
821 550
79 639
315 275
662 164
947 443
560 319
917 589
891 504
248 686
790 387
868 970
610 870
414 833
25 888
284 603
449 750
881 776
301 691
68 494
7 490
817 721
137 73
164 509
83 390
897 619
650 857
420 295
73 369
237 956
46 796
618 865
928 694
800 549
262 649
176 850
166 568
657 187
842 853
370 770
795 445
54 570
690 363
419 123
756 188
507 742
341 680
127 420
409 626
924 252
367 619
271 549
644 335
605 92
379 530
73 866
923 63
922 662
915 512
248 139
860 698
785 185
43 205
377 772
41 214
170 256
946 135
212 573
493 875
680 822
39 88
369 836
757 988
151 207
111 129
480 823
436 3
47 974
575 934
737 754
366 121
69 385
299 614
944 38
802 341
296 925
203 645
61 714
946 860
963 21
830 242
314 455
161 963
331 621
528 303
338 596
606 595
304 803
503 964
650 69
